Test: fpga11_13_uns_rcr.cnf
Options: -no-inverting-opt -activity-nl-freq=1
WARNING: for repeatability, setting FPU to use double precision
============================[ Problem Statistics ]=============================
|                                                                             |
|  Number of symmetries:           44                                         |
|  Number of invertingSyms:         0                                         |
|  Number of variables:           286                                         |
|  Number of clauses:            1742                                         |
|  Parse time:                   0.00 s                                       |
|                                                                             |
============================[ Search Statistics ]==============================
| Conflicts |          ORIGINAL         |          LEARNT          | Progress |
|           |    Vars  Clauses Literals |    Limit  Clauses Lit/Cl |          |
===============================================================================
|       100 |     286     1742     3718 |      638      120     61 |  0.001 % |
|       250 |     286     1742     3718 |      702      344     53 |  0.001 % |
|       475 |     286     1742     3718 |      772      432     43 |  0.001 % |
|       812 |     286     1742     3718 |      850      672     44 |  0.001 % |
|      1318 |     286     1742     3718 |      935      465     42 |  0.001 % |
|      2077 |     286     1742     3718 |     1028      624     39 |  0.016 % |
|      3216 |     286     1742     3718 |     1131      692     35 |  0.001 % |
|      4924 |     286     1742     3718 |     1244      692     38 |  0.001 % |
|      7486 |     286     1742     3718 |     1369      937     40 |  0.001 % |
===============================================================================
restarts              : 44
conflicts             : 10036          (36895 /sec)
symconflicts          : 1606           (5904 /sec)
decisions             : 17737          (0.00 % random) (65205 /sec)
propagations          : 209080         (768628 /sec)
sympropagations       : 9184           (33763 /sec)
conflict literals     : 496745         (6.22 % deleted)
literals     : 496745         (6.22 % deleted)

HEURISTIC USAGES
random                : 0           
activity w/ lookahead : 0           
activity no lookahead : 17737       
original sp           : 0           
sym count             : 0           

Memory used           : 6.00 MB
CPU time              : 0.272017 s

UNSATISFIABLE
